solution status: optimal solution found
objective value:                     102183.505325317
x0                                                  1 	(obj:0)
x106                                                1 	(obj:0)
x212                                                1 	(obj:0)
x318                                                1 	(obj:0)
x424                                                1 	(obj:0)
x530                                                1 	(obj:0)
x636                                                1 	(obj:0)
x742                                                1 	(obj:0)
x848                                                1 	(obj:0)
x954                                                1 	(obj:0)
x1060                                               1 	(obj:0)
x1166                                               1 	(obj:0)
x1272                                               1 	(obj:0)
x1405                                               1 	(obj:1199.39964294434)
x1511                                               1 	(obj:916.199798583984)
x1618                                               1 	(obj:2241.60003662109)
x1726                                               1 	(obj:2241.60003662109)
x1832                                               1 	(obj:2241.60003662109)
x1948                                               1 	(obj:1053.08544158936)
x2088                                               1 	(obj:2241.60003662109)
x2150                                               1 	(obj:2241.60003662109)
x2269                                               1 	(obj:2241.60003662109)
x2362                                               1 	(obj:2241.60003662109)
x2482                                               1 	(obj:2241.60003662109)
x2622                                               1 	(obj:1199.39964294434)
x2714                                               1 	(obj:1199.39964294434)
x2826                                               1 	(obj:1199.39964294434)
x2923                                               1 	(obj:1199.39964294434)
x3020                                               1 	(obj:1199.39964294434)
x3117                                               1 	(obj:2241.60003662109)
x3226                                               1 	(obj:2241.60003662109)
x3326                                               1 	(obj:2241.60003662109)
x3430                                               1 	(obj:1053.08544158936)
x3560                                               1 	(obj:2241.60003662109)
x3647                                               1 	(obj:2241.60003662109)
x3776                                               1 	(obj:2241.60003662109)
x3854                                               1 	(obj:2241.60003662109)
x3977                                               1 	(obj:2241.60003662109)
x4074                                               1 	(obj:2241.60003662109)
x4194                                               1 	(obj:2241.60003662109)
x4283                                               1 	(obj:0)
x4383                                               1 	(obj:1512.77137756348)
x4423                                               1 	(obj:970.799789428711)
x4581                                               1 	(obj:0)
x4649                                               1 	(obj:833.399963378906)
x4784                                               1 	(obj:0)
x4928                                               1 	(obj:1512.77137756348)
x4980                                               1 	(obj:2035.71418762207)
x5075                                               1 	(obj:2128.37127685547)
x5168                                               1 	(obj:1193.39973449707)
x5350                                               1 	(obj:0)
x5388                                               1 	(obj:2128.37127685547)
x5529                                               1 	(obj:0)
x5593                                               1 	(obj:1193.39973449707)
x5756                                               1 	(obj:0)
x5799                                               1 	(obj:1193.39973449707)
x5955                                               1 	(obj:0)
x6002                                               1 	(obj:970.799789428711)
x6132                                               1 	(obj:0)
x6215                                               1 	(obj:2128.37127685547)
x6330                                               1 	(obj:2128.37127685547)
x6432                                               1 	(obj:1193.39973449707)
x6528                                               1 	(obj:2128.37127685547)
x6637                                               1 	(obj:1193.39973449707)
x6764                                               1 	(obj:1057.19970703125)
x6859                                               1 	(obj:1193.39973449707)
x6983                                               1 	(obj:0)
x7095                                               1 	(obj:0)
x7156                                               1 	(obj:1193.39973449707)
x7266                                               1 	(obj:970.799789428711)
x7415                                               1 	(obj:0)
x7503                                               1 	(obj:0)
x7616                                               1 	(obj:0)
x7679                                               1 	(obj:1193.39973449707)
x7827                                               1 	(obj:0)
x7907                                               1 	(obj:1193.39973449707)
x8065                                               1 	(obj:0)
x8164                                               1 	(obj:0)
x8284                                               1 	(obj:0)
x8350                                               1 	(obj:1057.19970703125)
x8468                                               1 	(obj:0)
x8567                                               1 	(obj:0)
x8648                                               1 	(obj:1193.39973449707)
x8778                                               1 	(obj:0)
x8910                                               1 	(obj:0)
x8961                                               1 	(obj:2128.37127685547)
x9056                                               1 	(obj:2128.37127685547)
x9232                                               1 	(obj:0)
x9322                                               1 	(obj:0)
x9448                                               1 	(obj:0)
x9465                                               1 	(obj:1193.39973449707)
x9580                                               1 	(obj:2128.37127685547)
x9709                                               1 	(obj:0)
x9816                                               1 	(obj:2128.28544616699)
x9901                                               1 	(obj:833.399963378906)
x10062                                              1 	(obj:0)
x10161                                              1 	(obj:2128.28544616699)
x10222                                              1 	(obj:2128.37127685547)
x10309                                              1 	(obj:1193.39973449707)
x10499                                              1 	(obj:0)
x10591                                              1 	(obj:0)
x10659                                              1 	(obj:0)
x10783                                              1 	(obj:0)
x10876                                              1 	(obj:0)
x10959                                              1 	(obj:2128.37127685547)
x11025                               11580.2006225586 	(obj:0)
x11026                                           7037 	(obj:0)
x11027                                          27518 	(obj:0)
x11028                                           4764 	(obj:0)
x11029                               33102.8128051758 	(obj:0)
x11030                               24085.0286865234 	(obj:0)
x11031                                          14798 	(obj:0)
x11032                                          10660 	(obj:0)
x11033                                          30699 	(obj:0)
x11034                               22705.8467254639 	(obj:0)
x11035                                           8732 	(obj:0)
x11036                                          35914 	(obj:0)
x11037                                          10663 	(obj:0)
x11038                                          40188 	(obj:0)
x11039                               22148.5055541992 	(obj:0)
x11040                                          40216 	(obj:0)
x11041                               21733.2006225586 	(obj:0)
x11042                                          27690 	(obj:0)
x11043                                           7023 	(obj:0)
x11044                                          37455 	(obj:0)
x11045                                          32005 	(obj:0)
x11046                                          36215 	(obj:0)
x11047                                          39975 	(obj:0)
x11048                                          40255 	(obj:0)
x11049                                           3600 	(obj:0)
x11050                               25054.9535675049 	(obj:0)
x11051                               24228.5055541992 	(obj:0)
x11052                                          10575 	(obj:0)
x11053                                          29332 	(obj:0)
x11054                                          28431 	(obj:0)
x11055                                           8602 	(obj:0)
x11056                                          11904 	(obj:0)
x11057                                           9244 	(obj:0)
x11058                                          27402 	(obj:0)
x11059                                           9524 	(obj:0)
x11060                                          33126 	(obj:0)
x11061                                          11275 	(obj:0)
x11062                                           8421 	(obj:0)
x11063                                          20672 	(obj:0)
x11064                                          25701 	(obj:0)
x11065                               17939.2006225586 	(obj:0)
x11066                               22277.8758544922 	(obj:0)
x11067                                          30915 	(obj:0)
x11068                                          22973 	(obj:0)
x11069                                           7867 	(obj:0)
x11070                                          29095 	(obj:0)
x11071                                          37895 	(obj:0)
x11072                               19967.4887237549 	(obj:0)
x11073                                           7043 	(obj:0)
x11074                                          10621 	(obj:0)
x11075                                          23549 	(obj:0)
x11076                                          32564 	(obj:0)
x11077                                           5968 	(obj:0)
x11078                                           8251 	(obj:0)
x11079                                          38077 	(obj:0)
x11080                                           6036 	(obj:0)
x11081                                           6605 	(obj:0)
x11082                                          35344 	(obj:0)
x11083                               32531.1015777588 	(obj:0)
x11084                                          12078 	(obj:0)
x11085                               20221.5716018677 	(obj:0)
x11086                                           6612 	(obj:0)
x11087                                          15692 	(obj:0)
x11088                               23780.0002288818 	(obj:0)
x11089                                          31610 	(obj:0)
